donnees/Exemple2.lp
\ENCODING=ISO-8859-1
\Problem name: Configuration 1

Minimize
 obj1: 13.89 x#0#1#0 + 13.89 x#0#1#1 + 13.89 x#0#1#2 + 21.02 x#0#2#0
       + 21.02 x#0#2#1 + 21.02 x#0#2#2 + 32.56 x#0#3#0 + 32.56 x#0#3#1
       + 32.56 x#0#3#2 + 17.2 x#0#4#0 + 17.2 x#0#4#1 + 17.2 x#0#4#2
       + 14.14 x#0#5#0 + 14.14 x#0#5#1 + 14.14 x#0#5#2 + 11.4 x#0#6#0
       + 11.4 x#0#6#1 + 11.4 x#0#6#2 + 26.42 x#0#7#0 + 26.42 x#0#7#1
       + 26.42 x#0#7#2 + 13.89 x#1#0#0 + 13.89 x#1#0#1 + 13.89 x#1#0#2
       + 12.37 x#1#2#0 + 12.37 x#1#2#1 + 12.37 x#1#2#2 + 19.21 x#1#3#0
       + 19.21 x#1#3#1 + 19.21 x#1#3#2 + 31.06 x#1#4#0 + 31.06 x#1#4#1
       + 31.06 x#1#4#2 + 22.2 x#1#5#0 + 22.2 x#1#5#1 + 22.2 x#1#5#2
       + 16.76 x#1#6#0 + 16.76 x#1#6#1 + 16.76 x#1#6#2 + 22.83 x#1#7#0
       + 22.83 x#1#7#1 + 22.83 x#1#7#2 + 21.02 x#2#0#0 + 21.02 x#2#0#1
       + 21.02 x#2#0#2 + 12.37 x#2#1#0 + 12.37 x#2#1#1 + 12.37 x#2#1#2
       + 15.3 x#2#3#0 + 15.3 x#2#3#1 + 15.3 x#2#3#2 + 37.01 x#2#4#0
       + 37.01 x#2#4#1 + 37.01 x#2#4#2 + 21.02 x#2#5#0 + 21.02 x#2#5#1
       + 21.02 x#2#5#2 + 28.07 x#2#6#0 + 28.07 x#2#6#1 + 28.07 x#2#6#2
       + 34.93 x#2#7#0 + 34.93 x#2#7#1 + 34.93 x#2#7#2 + 32.56 x#3#0#0
       + 32.56 x#3#0#1 + 32.56 x#3#0#2 + 19.21 x#3#1#0 + 19.21 x#3#1#1
       + 19.21 x#3#1#2 + 15.3 x#3#2#0 + 15.3 x#3#2#1 + 15.3 x#3#2#2
       + 49.68 x#3#4#0 + 49.68 x#3#4#1 + 49.68 x#3#4#2 + 36.06 x#3#5#0
       + 36.06 x#3#5#1 + 36.06 x#3#5#2 + 35.36 x#3#6#0 + 35.36 x#3#6#1
       + 35.36 x#3#6#2 + 35.01 x#3#7#0 + 35.01 x#3#7#1 + 35.01 x#3#7#2
       + 17.2 x#4#0#0 + 17.2 x#4#0#1 + 17.2 x#4#0#2 + 31.06 x#4#1#0
       + 31.06 x#4#1#1 + 31.06 x#4#1#2 + 37.01 x#4#2#0 + 37.01 x#4#2#1
       + 37.01 x#4#2#2 + 49.68 x#4#3#0 + 49.68 x#4#3#1 + 49.68 x#4#3#2
       + 20.4 x#4#5#0 + 20.4 x#4#5#1 + 20.4 x#4#5#2 + 21.02 x#4#6#0
       + 21.02 x#4#6#1 + 21.02 x#4#6#2 + 37.12 x#4#7#0 + 37.12 x#4#7#1
       + 37.12 x#4#7#2 + 14.14 x#5#0#0 + 14.14 x#5#0#1 + 14.14 x#5#0#2
       + 22.2 x#5#1#0 + 22.2 x#5#1#1 + 22.2 x#5#1#2 + 21.02 x#5#2#0
       + 21.02 x#5#2#1 + 21.02 x#5#2#2 + 36.06 x#5#3#0 + 36.06 x#5#3#1
       + 36.06 x#5#3#2 + 20.4 x#5#4#0 + 20.4 x#5#4#1 + 20.4 x#5#4#2
       + 25.5 x#5#6#0 + 25.5 x#5#6#1 + 25.5 x#5#6#2 + 40.22 x#5#7#0
       + 40.22 x#5#7#1 + 40.22 x#5#7#2 + 11.4 x#6#0#0 + 11.4 x#6#0#1
       + 11.4 x#6#0#2 + 16.76 x#6#1#0 + 16.76 x#6#1#1 + 16.76 x#6#1#2
       + 28.07 x#6#2#0 + 28.07 x#6#2#1 + 28.07 x#6#2#2 + 35.36 x#6#3#0
       + 35.36 x#6#3#1 + 35.36 x#6#3#2 + 21.02 x#6#4#0 + 21.02 x#6#4#1
       + 21.02 x#6#4#2 + 25.5 x#6#5#0 + 25.5 x#6#5#1 + 25.5 x#6#5#2
       + 16.49 x#6#7#0 + 16.49 x#6#7#1 + 16.49 x#6#7#2 + 26.42 x#7#0#0
       + 26.42 x#7#0#1 + 26.42 x#7#0#2 + 22.83 x#7#1#0 + 22.83 x#7#1#1
       + 22.83 x#7#1#2 + 34.93 x#7#2#0 + 34.93 x#7#2#1 + 34.93 x#7#2#2
       + 35.01 x#7#3#0 + 35.01 x#7#3#1 + 35.01 x#7#3#2 + 37.12 x#7#4#0
       + 37.12 x#7#4#1 + 37.12 x#7#4#2 + 40.22 x#7#5#0 + 40.22 x#7#5#1
       + 40.22 x#7#5#2 + 16.49 x#7#6#0 + 16.49 x#7#6#1 + 16.49 x#7#6#2
Subject To
 c1:   x#0#1#0 + x#0#1#1 + x#0#1#2 + x#1#1#0 + x#1#1#1 + x#1#1#2 + x#2#1#0
       + x#2#1#1 + x#2#1#2 + x#3#1#0 + x#3#1#1 + x#3#1#2 + x#4#1#0 + x#4#1#1
       + x#4#1#2 + x#5#1#0 + x#5#1#1 + x#5#1#2 + x#6#1#0 + x#6#1#1 + x#6#1#2
       + x#7#1#0 + x#7#1#1 + x#7#1#2  = 1
 c2:   x#0#2#0 + x#0#2#1 + x#0#2#2 + x#1#2#0 + x#1#2#1 + x#1#2#2 + x#2#2#0
       + x#2#2#1 + x#2#2#2 + x#3#2#0 + x#3#2#1 + x#3#2#2 + x#4#2#0 + x#4#2#1
       + x#4#2#2 + x#5#2#0 + x#5#2#1 + x#5#2#2 + x#6#2#0 + x#6#2#1 + x#6#2#2
       + x#7#2#0 + x#7#2#1 + x#7#2#2  = 1
 c3:   x#0#3#0 + x#0#3#1 + x#0#3#2 + x#1#3#0 + x#1#3#1 + x#1#3#2 + x#2#3#0
       + x#2#3#1 + x#2#3#2 + x#3#3#0 + x#3#3#1 + x#3#3#2 + x#4#3#0 + x#4#3#1
       + x#4#3#2 + x#5#3#0 + x#5#3#1 + x#5#3#2 + x#6#3#0 + x#6#3#1 + x#6#3#2
       + x#7#3#0 + x#7#3#1 + x#7#3#2  = 1
 c4:   x#0#4#0 + x#0#4#1 + x#0#4#2 + x#1#4#0 + x#1#4#1 + x#1#4#2 + x#2#4#0
       + x#2#4#1 + x#2#4#2 + x#3#4#0 + x#3#4#1 + x#3#4#2 + x#4#4#0 + x#4#4#1
       + x#4#4#2 + x#5#4#0 + x#5#4#1 + x#5#4#2 + x#6#4#0 + x#6#4#1 + x#6#4#2
       + x#7#4#0 + x#7#4#1 + x#7#4#2  = 1
 c5:   x#0#5#0 + x#0#5#1 + x#0#5#2 + x#1#5#0 + x#1#5#1 + x#1#5#2 + x#2#5#0
       + x#2#5#1 + x#2#5#2 + x#3#5#0 + x#3#5#1 + x#3#5#2 + x#4#5#0 + x#4#5#1
       + x#4#5#2 + x#5#5#0 + x#5#5#1 + x#5#5#2 + x#6#5#0 + x#6#5#1 + x#6#5#2
       + x#7#5#0 + x#7#5#1 + x#7#5#2  = 1
 c6:   x#0#6#0 + x#0#6#1 + x#0#6#2 + x#1#6#0 + x#1#6#1 + x#1#6#2 + x#2#6#0
       + x#2#6#1 + x#2#6#2 + x#3#6#0 + x#3#6#1 + x#3#6#2 + x#4#6#0 + x#4#6#1
       + x#4#6#2 + x#5#6#0 + x#5#6#1 + x#5#6#2 + x#6#6#0 + x#6#6#1 + x#6#6#2
       + x#7#6#0 + x#7#6#1 + x#7#6#2  = 1
 c7:   x#0#7#0 + x#0#7#1 + x#0#7#2 + x#1#7#0 + x#1#7#1 + x#1#7#2 + x#2#7#0
       + x#2#7#1 + x#2#7#2 + x#3#7#0 + x#3#7#1 + x#3#7#2 + x#4#7#0 + x#4#7#1
       + x#4#7#2 + x#5#7#0 + x#5#7#1 + x#5#7#2 + x#6#7#0 + x#6#7#1 + x#6#7#2
       + x#7#7#0 + x#7#7#1 + x#7#7#2  = 1
 c8:   - x#0#1#0 + x#1#0#0 + x#1#2#0 + x#1#3#0 + x#1#4#0 + x#1#5#0 + x#1#6#0
       + x#1#7#0 - x#2#1#0 - x#3#1#0 - x#4#1#0 - x#5#1#0 - x#6#1#0 - x#7#1#0
        = 0
 c9:   - x#0#1#1 + x#1#0#1 + x#1#2#1 + x#1#3#1 + x#1#4#1 + x#1#5#1 + x#1#6#1
       + x#1#7#1 - x#2#1#1 - x#3#1#1 - x#4#1#1 - x#5#1#1 - x#6#1#1 - x#7#1#1
        = 0
 c10:  - x#0#1#2 + x#1#0#2 + x#1#2#2 + x#1#3#2 + x#1#4#2 + x#1#5#2 + x#1#6#2
       + x#1#7#2 - x#2#1#2 - x#3#1#2 - x#4#1#2 - x#5#1#2 - x#6#1#2 - x#7#1#2
        = 0
 c11:  - x#0#2#0 - x#1#2#0 + x#2#0#0 + x#2#1#0 + x#2#3#0 + x#2#4#0 + x#2#5#0
       + x#2#6#0 + x#2#7#0 - x#3#2#0 - x#4#2#0 - x#5#2#0 - x#6#2#0 - x#7#2#0
        = 0
 c12:  - x#0#2#1 - x#1#2#1 + x#2#0#1 + x#2#1#1 + x#2#3#1 + x#2#4#1 + x#2#5#1
       + x#2#6#1 + x#2#7#1 - x#3#2#1 - x#4#2#1 - x#5#2#1 - x#6#2#1 - x#7#2#1
        = 0
 c13:  - x#0#2#2 - x#1#2#2 + x#2#0#2 + x#2#1#2 + x#2#3#2 + x#2#4#2 + x#2#5#2
       + x#2#6#2 + x#2#7#2 - x#3#2#2 - x#4#2#2 - x#5#2#2 - x#6#2#2 - x#7#2#2
        = 0
 c14:  - x#0#3#0 - x#1#3#0 - x#2#3#0 + x#3#0#0 + x#3#1#0 + x#3#2#0 + x#3#4#0
       + x#3#5#0 + x#3#6#0 + x#3#7#0 - x#4#3#0 - x#5#3#0 - x#6#3#0 - x#7#3#0
        = 0
 c15:  - x#0#3#1 - x#1#3#1 - x#2#3#1 + x#3#0#1 + x#3#1#1 + x#3#2#1 + x#3#4#1
       + x#3#5#1 + x#3#6#1 + x#3#7#1 - x#4#3#1 - x#5#3#1 - x#6#3#1 - x#7#3#1
        = 0
 c16:  - x#0#3#2 - x#1#3#2 - x#2#3#2 + x#3#0#2 + x#3#1#2 + x#3#2#2 + x#3#4#2
       + x#3#5#2 + x#3#6#2 + x#3#7#2 - x#4#3#2 - x#5#3#2 - x#6#3#2 - x#7#3#2
        = 0
 c17:  - x#0#4#0 - x#1#4#0 - x#2#4#0 - x#3#4#0 + x#4#0#0 + x#4#1#0 + x#4#2#0
       + x#4#3#0 + x#4#5#0 + x#4#6#0 + x#4#7#0 - x#5#4#0 - x#6#4#0 - x#7#4#0
        = 0
 c18:  - x#0#4#1 - x#1#4#1 - x#2#4#1 - x#3#4#1 + x#4#0#1 + x#4#1#1 + x#4#2#1
       + x#4#3#1 + x#4#5#1 + x#4#6#1 + x#4#7#1 - x#5#4#1 - x#6#4#1 - x#7#4#1
        = 0
 c19:  - x#0#4#2 - x#1#4#2 - x#2#4#2 - x#3#4#2 + x#4#0#2 + x#4#1#2 + x#4#2#2
       + x#4#3#2 + x#4#5#2 + x#4#6#2 + x#4#7#2 - x#5#4#2 - x#6#4#2 - x#7#4#2
        = 0
 c20:  - x#0#5#0 - x#1#5#0 - x#2#5#0 - x#3#5#0 - x#4#5#0 + x#5#0#0 + x#5#1#0
       + x#5#2#0 + x#5#3#0 + x#5#4#0 + x#5#6#0 + x#5#7#0 - x#6#5#0 - x#7#5#0
        = 0
 c21:  - x#0#5#1 - x#1#5#1 - x#2#5#1 - x#3#5#1 - x#4#5#1 + x#5#0#1 + x#5#1#1
       + x#5#2#1 + x#5#3#1 + x#5#4#1 + x#5#6#1 + x#5#7#1 - x#6#5#1 - x#7#5#1
        = 0
 c22:  - x#0#5#2 - x#1#5#2 - x#2#5#2 - x#3#5#2 - x#4#5#2 + x#5#0#2 + x#5#1#2
       + x#5#2#2 + x#5#3#2 + x#5#4#2 + x#5#6#2 + x#5#7#2 - x#6#5#2 - x#7#5#2
        = 0
 c23:  - x#0#6#0 - x#1#6#0 - x#2#6#0 - x#3#6#0 - x#4#6#0 - x#5#6#0 + x#6#0#0
       + x#6#1#0 + x#6#2#0 + x#6#3#0 + x#6#4#0 + x#6#5#0 + x#6#7#0 - x#7#6#0
        = 0
 c24:  - x#0#6#1 - x#1#6#1 - x#2#6#1 - x#3#6#1 - x#4#6#1 - x#5#6#1 + x#6#0#1
       + x#6#1#1 + x#6#2#1 + x#6#3#1 + x#6#4#1 + x#6#5#1 + x#6#7#1 - x#7#6#1
        = 0
 c25:  - x#0#6#2 - x#1#6#2 - x#2#6#2 - x#3#6#2 - x#4#6#2 - x#5#6#2 + x#6#0#2
       + x#6#1#2 + x#6#2#2 + x#6#3#2 + x#6#4#2 + x#6#5#2 + x#6#7#2 - x#7#6#2
        = 0
 c26:  - x#0#7#0 - x#1#7#0 - x#2#7#0 - x#3#7#0 - x#4#7#0 - x#5#7#0 - x#6#7#0
       + x#7#0#0 + x#7#1#0 + x#7#2#0 + x#7#3#0 + x#7#4#0 + x#7#5#0 + x#7#6#0
        = 0
 c27:  - x#0#7#1 - x#1#7#1 - x#2#7#1 - x#3#7#1 - x#4#7#1 - x#5#7#1 - x#6#7#1
       + x#7#0#1 + x#7#1#1 + x#7#2#1 + x#7#3#1 + x#7#4#1 + x#7#5#1 + x#7#6#1
        = 0
 c28:  - x#0#7#2 - x#1#7#2 - x#2#7#2 - x#3#7#2 - x#4#7#2 - x#5#7#2 - x#6#7#2
       + x#7#0#2 + x#7#1#2 + x#7#2#2 + x#7#3#2 + x#7#4#2 + x#7#5#2 + x#7#6#2
        = 0
 c29:  x#0#0#0 + x#0#1#0 + x#0#2#0 + x#0#3#0 + x#0#4#0 + x#0#5#0 + x#0#6#0
       + x#0#7#0  = 1
 c30:  x#0#0#1 + x#0#1#1 + x#0#2#1 + x#0#3#1 + x#0#4#1 + x#0#5#1 + x#0#6#1
       + x#0#7#1  = 1
 c31:  x#0#0#2 + x#0#1#2 + x#0#2#2 + x#0#3#2 + x#0#4#2 + x#0#5#2 + x#0#6#2
       + x#0#7#2  = 1
 c32:  7 x#1#0#0 + 7 x#1#1#0 + 7 x#1#2#0 + 7 x#1#3#0 + 7 x#1#4#0 + 7 x#1#5#0
       + 7 x#1#6#0 + 7 x#1#7#0 + 30 x#2#0#0 + 30 x#2#1#0 + 30 x#2#2#0
       + 30 x#2#3#0 + 30 x#2#4#0 + 30 x#2#5#0 + 30 x#2#6#0 + 30 x#2#7#0
       + 16 x#3#0#0 + 16 x#3#1#0 + 16 x#3#2#0 + 16 x#3#3#0 + 16 x#3#4#0
       + 16 x#3#5#0 + 16 x#3#6#0 + 16 x#3#7#0 + 9 x#4#0#0 + 9 x#4#1#0
       + 9 x#4#2#0 + 9 x#4#3#0 + 9 x#4#4#0 + 9 x#4#5#0 + 9 x#4#6#0 + 9 x#4#7#0
       + 21 x#5#0#0 + 21 x#5#1#0 + 21 x#5#2#0 + 21 x#5#3#0 + 21 x#5#4#0
       + 21 x#5#5#0 + 21 x#5#6#0 + 21 x#5#7#0 + 15 x#6#0#0 + 15 x#6#1#0
       + 15 x#6#2#0 + 15 x#6#3#0 + 15 x#6#4#0 + 15 x#6#5#0 + 15 x#6#6#0
       + 15 x#6#7#0 + 19 x#7#0#0 + 19 x#7#1#0 + 19 x#7#2#0 + 19 x#7#3#0
       + 19 x#7#4#0 + 19 x#7#5#0 + 19 x#7#6#0 + 19 x#7#7#0 <= 160
 c33:  7 x#1#0#1 + 7 x#1#1#1 + 7 x#1#2#1 + 7 x#1#3#1 + 7 x#1#4#1 + 7 x#1#5#1
       + 7 x#1#6#1 + 7 x#1#7#1 + 30 x#2#0#1 + 30 x#2#1#1 + 30 x#2#2#1
       + 30 x#2#3#1 + 30 x#2#4#1 + 30 x#2#5#1 + 30 x#2#6#1 + 30 x#2#7#1
       + 16 x#3#0#1 + 16 x#3#1#1 + 16 x#3#2#1 + 16 x#3#3#1 + 16 x#3#4#1
       + 16 x#3#5#1 + 16 x#3#6#1 + 16 x#3#7#1 + 9 x#4#0#1 + 9 x#4#1#1
       + 9 x#4#2#1 + 9 x#4#3#1 + 9 x#4#4#1 + 9 x#4#5#1 + 9 x#4#6#1 + 9 x#4#7#1
       + 21 x#5#0#1 + 21 x#5#1#1 + 21 x#5#2#1 + 21 x#5#3#1 + 21 x#5#4#1
       + 21 x#5#5#1 + 21 x#5#6#1 + 21 x#5#7#1 + 15 x#6#0#1 + 15 x#6#1#1
       + 15 x#6#2#1 + 15 x#6#3#1 + 15 x#6#4#1 + 15 x#6#5#1 + 15 x#6#6#1
       + 15 x#6#7#1 + 19 x#7#0#1 + 19 x#7#1#1 + 19 x#7#2#1 + 19 x#7#3#1
       + 19 x#7#4#1 + 19 x#7#5#1 + 19 x#7#6#1 + 19 x#7#7#1 <= 160
 c34:  7 x#1#0#2 + 7 x#1#1#2 + 7 x#1#2#2 + 7 x#1#3#2 + 7 x#1#4#2 + 7 x#1#5#2
       + 7 x#1#6#2 + 7 x#1#7#2 + 30 x#2#0#2 + 30 x#2#1#2 + 30 x#2#2#2
       + 30 x#2#3#2 + 30 x#2#4#2 + 30 x#2#5#2 + 30 x#2#6#2 + 30 x#2#7#2
       + 16 x#3#0#2 + 16 x#3#1#2 + 16 x#3#2#2 + 16 x#3#3#2 + 16 x#3#4#2
       + 16 x#3#5#2 + 16 x#3#6#2 + 16 x#3#7#2 + 9 x#4#0#2 + 9 x#4#1#2
       + 9 x#4#2#2 + 9 x#4#3#2 + 9 x#4#4#2 + 9 x#4#5#2 + 9 x#4#6#2 + 9 x#4#7#2
       + 21 x#5#0#2 + 21 x#5#1#2 + 21 x#5#2#2 + 21 x#5#3#2 + 21 x#5#4#2
       + 21 x#5#5#2 + 21 x#5#6#2 + 21 x#5#7#2 + 15 x#6#0#2 + 15 x#6#1#2
       + 15 x#6#2#2 + 15 x#6#3#2 + 15 x#6#4#2 + 15 x#6#5#2 + 15 x#6#6#2
       + 15 x#6#7#2 + 19 x#7#0#2 + 19 x#7#1#2 + 19 x#7#2#2 + 19 x#7#3#2
       + 19 x#7#4#2 + 19 x#7#5#2 + 19 x#7#6#2 + 19 x#7#7#2 <= 160
 c35:  5 x#0#1#0 + u(1)(1) - u(2)(1) <= 4
 c36:  5 x#0#1#1 + u(1)(2) - u(2)(2) <= 4
 c37:  5 x#0#1#2 + u(1)(3) - u(2)(3) <= 4
 c38:  5 x#0#2#0 + u(1)(1) - u(3)(1) <= 4
 c39:  5 x#0#2#1 + u(1)(2) - u(3)(2) <= 4
 c40:  5 x#0#2#2 + u(1)(3) - u(3)(3) <= 4
 c41:  5 x#0#3#0 + u(1)(1) - u(4)(1) <= 4
 c42:  5 x#0#3#1 + u(1)(2) - u(4)(2) <= 4
 c43:  5 x#0#3#2 + u(1)(3) - u(4)(3) <= 4
 c44:  5 x#0#4#0 + u(1)(1) - u(5)(1) <= 4
 c45:  5 x#0#4#1 + u(1)(2) - u(5)(2) <= 4
 c46:  5 x#0#4#2 + u(1)(3) - u(5)(3) <= 4
 c47:  5 x#0#5#0 + u(1)(1) - u(6)(1) <= 4
 c48:  5 x#0#5#1 + u(1)(2) - u(6)(2) <= 4
 c49:  5 x#0#5#2 + u(1)(3) - u(6)(3) <= 4
 c50:  5 x#0#6#0 + u(1)(1) - u(7)(1) <= 4
 c51:  5 x#0#6#1 + u(1)(2) - u(7)(2) <= 4
 c52:  5 x#0#6#2 + u(1)(3) - u(7)(3) <= 4
 c53:  5 x#0#7#0 + u(1)(1) - u(8)(1) <= 4
 c54:  5 x#0#7#1 + u(1)(2) - u(8)(2) <= 4
 c55:  5 x#0#7#2 + u(1)(3) - u(8)(3) <= 4
 c56:  5 x#1#1#0 <= 4
 c57:  5 x#1#1#1 <= 4
 c58:  5 x#1#1#2 <= 4
 c59:  5 x#1#2#0 + u(2)(1) - u(3)(1) <= 4
 c60:  5 x#1#2#1 + u(2)(2) - u(3)(2) <= 4
 c61:  5 x#1#2#2 + u(2)(3) - u(3)(3) <= 4
 c62:  5 x#1#3#0 + u(2)(1) - u(4)(1) <= 4
 c63:  5 x#1#3#1 + u(2)(2) - u(4)(2) <= 4
 c64:  5 x#1#3#2 + u(2)(3) - u(4)(3) <= 4
 c65:  5 x#1#4#0 + u(2)(1) - u(5)(1) <= 4
 c66:  5 x#1#4#1 + u(2)(2) - u(5)(2) <= 4
 c67:  5 x#1#4#2 + u(2)(3) - u(5)(3) <= 4
 c68:  5 x#1#5#0 + u(2)(1) - u(6)(1) <= 4
 c69:  5 x#1#5#1 + u(2)(2) - u(6)(2) <= 4
 c70:  5 x#1#5#2 + u(2)(3) - u(6)(3) <= 4
 c71:  5 x#1#6#0 + u(2)(1) - u(7)(1) <= 4
 c72:  5 x#1#6#1 + u(2)(2) - u(7)(2) <= 4
 c73:  5 x#1#6#2 + u(2)(3) - u(7)(3) <= 4
 c74:  5 x#1#7#0 + u(2)(1) - u(8)(1) <= 4
 c75:  5 x#1#7#1 + u(2)(2) - u(8)(2) <= 4
 c76:  5 x#1#7#2 + u(2)(3) - u(8)(3) <= 4
 c77:  5 x#2#1#0 - u(2)(1) + u(3)(1) <= 4
 c78:  5 x#2#1#1 - u(2)(2) + u(3)(2) <= 4
 c79:  5 x#2#1#2 - u(2)(3) + u(3)(3) <= 4
 c80:  5 x#2#2#0 <= 4
 c81:  5 x#2#2#1 <= 4
 c82:  5 x#2#2#2 <= 4
 c83:  5 x#2#3#0 + u(3)(1) - u(4)(1) <= 4
 c84:  5 x#2#3#1 + u(3)(2) - u(4)(2) <= 4
 c85:  5 x#2#3#2 + u(3)(3) - u(4)(3) <= 4
 c86:  5 x#2#4#0 + u(3)(1) - u(5)(1) <= 4
 c87:  5 x#2#4#1 + u(3)(2) - u(5)(2) <= 4
 c88:  5 x#2#4#2 + u(3)(3) - u(5)(3) <= 4
 c89:  5 x#2#5#0 + u(3)(1) - u(6)(1) <= 4
 c90:  5 x#2#5#1 + u(3)(2) - u(6)(2) <= 4
 c91:  5 x#2#5#2 + u(3)(3) - u(6)(3) <= 4
 c92:  5 x#2#6#0 + u(3)(1) - u(7)(1) <= 4
 c93:  5 x#2#6#1 + u(3)(2) - u(7)(2) <= 4
 c94:  5 x#2#6#2 + u(3)(3) - u(7)(3) <= 4
 c95:  5 x#2#7#0 + u(3)(1) - u(8)(1) <= 4
 c96:  5 x#2#7#1 + u(3)(2) - u(8)(2) <= 4
 c97:  5 x#2#7#2 + u(3)(3) - u(8)(3) <= 4
 c98:  5 x#3#1#0 - u(2)(1) + u(4)(1) <= 4
 c99:  5 x#3#1#1 - u(2)(2) + u(4)(2) <= 4
 c100: 5 x#3#1#2 - u(2)(3) + u(4)(3) <= 4
 c101: 5 x#3#2#0 - u(3)(1) + u(4)(1) <= 4
 c102: 5 x#3#2#1 - u(3)(2) + u(4)(2) <= 4
 c103: 5 x#3#2#2 - u(3)(3) + u(4)(3) <= 4
 c104: 5 x#3#3#0 <= 4
 c105: 5 x#3#3#1 <= 4
 c106: 5 x#3#3#2 <= 4
 c107: 5 x#3#4#0 + u(4)(1) - u(5)(1) <= 4
 c108: 5 x#3#4#1 + u(4)(2) - u(5)(2) <= 4
 c109: 5 x#3#4#2 + u(4)(3) - u(5)(3) <= 4
 c110: 5 x#3#5#0 + u(4)(1) - u(6)(1) <= 4
 c111: 5 x#3#5#1 + u(4)(2) - u(6)(2) <= 4
 c112: 5 x#3#5#2 + u(4)(3) - u(6)(3) <= 4
 c113: 5 x#3#6#0 + u(4)(1) - u(7)(1) <= 4
 c114: 5 x#3#6#1 + u(4)(2) - u(7)(2) <= 4
 c115: 5 x#3#6#2 + u(4)(3) - u(7)(3) <= 4
 c116: 5 x#3#7#0 + u(4)(1) - u(8)(1) <= 4
 c117: 5 x#3#7#1 + u(4)(2) - u(8)(2) <= 4
 c118: 5 x#3#7#2 + u(4)(3) - u(8)(3) <= 4
 c119: 5 x#4#1#0 - u(2)(1) + u(5)(1) <= 4
 c120: 5 x#4#1#1 - u(2)(2) + u(5)(2) <= 4
 c121: 5 x#4#1#2 - u(2)(3) + u(5)(3) <= 4
 c122: 5 x#4#2#0 - u(3)(1) + u(5)(1) <= 4
 c123: 5 x#4#2#1 - u(3)(2) + u(5)(2) <= 4
 c124: 5 x#4#2#2 - u(3)(3) + u(5)(3) <= 4
 c125: 5 x#4#3#0 - u(4)(1) + u(5)(1) <= 4
 c126: 5 x#4#3#1 - u(4)(2) + u(5)(2) <= 4
 c127: 5 x#4#3#2 - u(4)(3) + u(5)(3) <= 4
 c128: 5 x#4#4#0 <= 4
 c129: 5 x#4#4#1 <= 4
 c130: 5 x#4#4#2 <= 4
 c131: 5 x#4#5#0 + u(5)(1) - u(6)(1) <= 4
 c132: 5 x#4#5#1 + u(5)(2) - u(6)(2) <= 4
 c133: 5 x#4#5#2 + u(5)(3) - u(6)(3) <= 4
 c134: 5 x#4#6#0 + u(5)(1) - u(7)(1) <= 4
 c135: 5 x#4#6#1 + u(5)(2) - u(7)(2) <= 4
 c136: 5 x#4#6#2 + u(5)(3) - u(7)(3) <= 4
 c137: 5 x#4#7#0 + u(5)(1) - u(8)(1) <= 4
 c138: 5 x#4#7#1 + u(5)(2) - u(8)(2) <= 4
 c139: 5 x#4#7#2 + u(5)(3) - u(8)(3) <= 4
 c140: 5 x#5#1#0 - u(2)(1) + u(6)(1) <= 4
 c141: 5 x#5#1#1 - u(2)(2) + u(6)(2) <= 4
 c142: 5 x#5#1#2 - u(2)(3) + u(6)(3) <= 4
 c143: 5 x#5#2#0 - u(3)(1) + u(6)(1) <= 4
 c144: 5 x#5#2#1 - u(3)(2) + u(6)(2) <= 4
 c145: 5 x#5#2#2 - u(3)(3) + u(6)(3) <= 4
 c146: 5 x#5#3#0 - u(4)(1) + u(6)(1) <= 4
 c147: 5 x#5#3#1 - u(4)(2) + u(6)(2) <= 4
 c148: 5 x#5#3#2 - u(4)(3) + u(6)(3) <= 4
 c149: 5 x#5#4#0 - u(5)(1) + u(6)(1) <= 4
 c150: 5 x#5#4#1 - u(5)(2) + u(6)(2) <= 4
 c151: 5 x#5#4#2 - u(5)(3) + u(6)(3) <= 4
 c152: 5 x#5#5#0 <= 4
 c153: 5 x#5#5#1 <= 4
 c154: 5 x#5#5#2 <= 4
 c155: 5 x#5#6#0 + u(6)(1) - u(7)(1) <= 4
 c156: 5 x#5#6#1 + u(6)(2) - u(7)(2) <= 4
 c157: 5 x#5#6#2 + u(6)(3) - u(7)(3) <= 4
 c158: 5 x#5#7#0 + u(6)(1) - u(8)(1) <= 4
 c159: 5 x#5#7#1 + u(6)(2) - u(8)(2) <= 4
 c160: 5 x#5#7#2 + u(6)(3) - u(8)(3) <= 4
 c161: 5 x#6#1#0 - u(2)(1) + u(7)(1) <= 4
 c162: 5 x#6#1#1 - u(2)(2) + u(7)(2) <= 4
 c163: 5 x#6#1#2 - u(2)(3) + u(7)(3) <= 4
 c164: 5 x#6#2#0 - u(3)(1) + u(7)(1) <= 4
 c165: 5 x#6#2#1 - u(3)(2) + u(7)(2) <= 4
 c166: 5 x#6#2#2 - u(3)(3) + u(7)(3) <= 4
 c167: 5 x#6#3#0 - u(4)(1) + u(7)(1) <= 4
 c168: 5 x#6#3#1 - u(4)(2) + u(7)(2) <= 4
 c169: 5 x#6#3#2 - u(4)(3) + u(7)(3) <= 4
 c170: 5 x#6#4#0 - u(5)(1) + u(7)(1) <= 4
 c171: 5 x#6#4#1 - u(5)(2) + u(7)(2) <= 4
 c172: 5 x#6#4#2 - u(5)(3) + u(7)(3) <= 4
 c173: 5 x#6#5#0 - u(6)(1) + u(7)(1) <= 4
 c174: 5 x#6#5#1 - u(6)(2) + u(7)(2) <= 4
 c175: 5 x#6#5#2 - u(6)(3) + u(7)(3) <= 4
 c176: 5 x#6#6#0 <= 4
 c177: 5 x#6#6#1 <= 4
 c178: 5 x#6#6#2 <= 4
 c179: 5 x#6#7#0 + u(7)(1) - u(8)(1) <= 4
 c180: 5 x#6#7#1 + u(7)(2) - u(8)(2) <= 4
 c181: 5 x#6#7#2 + u(7)(3) - u(8)(3) <= 4
 c182: 5 x#7#1#0 - u(2)(1) + u(8)(1) <= 4
 c183: 5 x#7#1#1 - u(2)(2) + u(8)(2) <= 4
 c184: 5 x#7#1#2 - u(2)(3) + u(8)(3) <= 4
 c185: 5 x#7#2#0 - u(3)(1) + u(8)(1) <= 4
 c186: 5 x#7#2#1 - u(3)(2) + u(8)(2) <= 4
 c187: 5 x#7#2#2 - u(3)(3) + u(8)(3) <= 4
 c188: 5 x#7#3#0 - u(4)(1) + u(8)(1) <= 4
 c189: 5 x#7#3#1 - u(4)(2) + u(8)(2) <= 4
 c190: 5 x#7#3#2 - u(4)(3) + u(8)(3) <= 4
 c191: 5 x#7#4#0 - u(5)(1) + u(8)(1) <= 4
 c192: 5 x#7#4#1 - u(5)(2) + u(8)(2) <= 4
 c193: 5 x#7#4#2 - u(5)(3) + u(8)(3) <= 4
 c194: 5 x#7#5#0 - u(6)(1) + u(8)(1) <= 4
 c195: 5 x#7#5#1 - u(6)(2) + u(8)(2) <= 4
 c196: 5 x#7#5#2 - u(6)(3) + u(8)(3) <= 4
 c197: 5 x#7#6#0 - u(7)(1) + u(8)(1) <= 4
 c198: 5 x#7#6#1 - u(7)(2) + u(8)(2) <= 4
 c199: 5 x#7#6#2 - u(7)(3) + u(8)(3) <= 4
 c200: 5 x#7#7#0 <= 4
 c201: 5 x#7#7#1 <= 4
 c202: 5 x#7#7#2 <= 4
Bounds
 0 <= x#0#0#0 <= 1
 0 <= x#0#0#1 <= 1
 0 <= x#0#0#2 <= 1
 0 <= x#0#1#0 <= 1
 0 <= x#0#1#1 <= 1
 0 <= x#0#1#2 <= 1
 0 <= x#0#2#0 <= 1
 0 <= x#0#2#1 <= 1
 0 <= x#0#2#2 <= 1
 0 <= x#0#3#0 <= 1
 0 <= x#0#3#1 <= 1
 0 <= x#0#3#2 <= 1
 0 <= x#0#4#0 <= 1
 0 <= x#0#4#1 <= 1
 0 <= x#0#4#2 <= 1
 0 <= x#0#5#0 <= 1
 0 <= x#0#5#1 <= 1
 0 <= x#0#5#2 <= 1
 0 <= x#0#6#0 <= 1
 0 <= x#0#6#1 <= 1
 0 <= x#0#6#2 <= 1
 0 <= x#0#7#0 <= 1
 0 <= x#0#7#1 <= 1
 0 <= x#0#7#2 <= 1
 0 <= x#1#0#0 <= 1
 0 <= x#1#0#1 <= 1
 0 <= x#1#0#2 <= 1
 0 <= x#1#1#0 <= 1
 0 <= x#1#1#1 <= 1
 0 <= x#1#1#2 <= 1
 0 <= x#1#2#0 <= 1
 0 <= x#1#2#1 <= 1
 0 <= x#1#2#2 <= 1
 0 <= x#1#3#0 <= 1
 0 <= x#1#3#1 <= 1
 0 <= x#1#3#2 <= 1
 0 <= x#1#4#0 <= 1
 0 <= x#1#4#1 <= 1
 0 <= x#1#4#2 <= 1
 0 <= x#1#5#0 <= 1
 0 <= x#1#5#1 <= 1
 0 <= x#1#5#2 <= 1
 0 <= x#1#6#0 <= 1
 0 <= x#1#6#1 <= 1
 0 <= x#1#6#2 <= 1
 0 <= x#1#7#0 <= 1
 0 <= x#1#7#1 <= 1
 0 <= x#1#7#2 <= 1
 0 <= x#2#0#0 <= 1
 0 <= x#2#0#1 <= 1
 0 <= x#2#0#2 <= 1
 0 <= x#2#1#0 <= 1
 0 <= x#2#1#1 <= 1
 0 <= x#2#1#2 <= 1
 0 <= x#2#2#0 <= 1
 0 <= x#2#2#1 <= 1
 0 <= x#2#2#2 <= 1
 0 <= x#2#3#0 <= 1
 0 <= x#2#3#1 <= 1
 0 <= x#2#3#2 <= 1
 0 <= x#2#4#0 <= 1
 0 <= x#2#4#1 <= 1
 0 <= x#2#4#2 <= 1
 0 <= x#2#5#0 <= 1
 0 <= x#2#5#1 <= 1
 0 <= x#2#5#2 <= 1
 0 <= x#2#6#0 <= 1
 0 <= x#2#6#1 <= 1
 0 <= x#2#6#2 <= 1
 0 <= x#2#7#0 <= 1
 0 <= x#2#7#1 <= 1
 0 <= x#2#7#2 <= 1
 0 <= x#3#0#0 <= 1
 0 <= x#3#0#1 <= 1
 0 <= x#3#0#2 <= 1
 0 <= x#3#1#0 <= 1
 0 <= x#3#1#1 <= 1
 0 <= x#3#1#2 <= 1
 0 <= x#3#2#0 <= 1
 0 <= x#3#2#1 <= 1
 0 <= x#3#2#2 <= 1
 0 <= x#3#3#0 <= 1
 0 <= x#3#3#1 <= 1
 0 <= x#3#3#2 <= 1
 0 <= x#3#4#0 <= 1
 0 <= x#3#4#1 <= 1
 0 <= x#3#4#2 <= 1
 0 <= x#3#5#0 <= 1
 0 <= x#3#5#1 <= 1
 0 <= x#3#5#2 <= 1
 0 <= x#3#6#0 <= 1
 0 <= x#3#6#1 <= 1
 0 <= x#3#6#2 <= 1
 0 <= x#3#7#0 <= 1
 0 <= x#3#7#1 <= 1
 0 <= x#3#7#2 <= 1
 0 <= x#4#0#0 <= 1
 0 <= x#4#0#1 <= 1
 0 <= x#4#0#2 <= 1
 0 <= x#4#1#0 <= 1
 0 <= x#4#1#1 <= 1
 0 <= x#4#1#2 <= 1
 0 <= x#4#2#0 <= 1
 0 <= x#4#2#1 <= 1
 0 <= x#4#2#2 <= 1
 0 <= x#4#3#0 <= 1
 0 <= x#4#3#1 <= 1
 0 <= x#4#3#2 <= 1
 0 <= x#4#4#0 <= 1
 0 <= x#4#4#1 <= 1
 0 <= x#4#4#2 <= 1
 0 <= x#4#5#0 <= 1
 0 <= x#4#5#1 <= 1
 0 <= x#4#5#2 <= 1
 0 <= x#4#6#0 <= 1
 0 <= x#4#6#1 <= 1
 0 <= x#4#6#2 <= 1
 0 <= x#4#7#0 <= 1
 0 <= x#4#7#1 <= 1
 0 <= x#4#7#2 <= 1
 0 <= x#5#0#0 <= 1
 0 <= x#5#0#1 <= 1
 0 <= x#5#0#2 <= 1
 0 <= x#5#1#0 <= 1
 0 <= x#5#1#1 <= 1
 0 <= x#5#1#2 <= 1
 0 <= x#5#2#0 <= 1
 0 <= x#5#2#1 <= 1
 0 <= x#5#2#2 <= 1
 0 <= x#5#3#0 <= 1
 0 <= x#5#3#1 <= 1
 0 <= x#5#3#2 <= 1
 0 <= x#5#4#0 <= 1
 0 <= x#5#4#1 <= 1
 0 <= x#5#4#2 <= 1
 0 <= x#5#5#0 <= 1
 0 <= x#5#5#1 <= 1
 0 <= x#5#5#2 <= 1
 0 <= x#5#6#0 <= 1
 0 <= x#5#6#1 <= 1
 0 <= x#5#6#2 <= 1
 0 <= x#5#7#0 <= 1
 0 <= x#5#7#1 <= 1
 0 <= x#5#7#2 <= 1
 0 <= x#6#0#0 <= 1
 0 <= x#6#0#1 <= 1
 0 <= x#6#0#2 <= 1
 0 <= x#6#1#0 <= 1
 0 <= x#6#1#1 <= 1
 0 <= x#6#1#2 <= 1
 0 <= x#6#2#0 <= 1
 0 <= x#6#2#1 <= 1
 0 <= x#6#2#2 <= 1
 0 <= x#6#3#0 <= 1
 0 <= x#6#3#1 <= 1
 0 <= x#6#3#2 <= 1
 0 <= x#6#4#0 <= 1
 0 <= x#6#4#1 <= 1
 0 <= x#6#4#2 <= 1
 0 <= x#6#5#0 <= 1
 0 <= x#6#5#1 <= 1
 0 <= x#6#5#2 <= 1
 0 <= x#6#6#0 <= 1
 0 <= x#6#6#1 <= 1
 0 <= x#6#6#2 <= 1
 0 <= x#6#7#0 <= 1
 0 <= x#6#7#1 <= 1
 0 <= x#6#7#2 <= 1
 0 <= x#7#0#0 <= 1
 0 <= x#7#0#1 <= 1
 0 <= x#7#0#2 <= 1
 0 <= x#7#1#0 <= 1
 0 <= x#7#1#1 <= 1
 0 <= x#7#1#2 <= 1
 0 <= x#7#2#0 <= 1
 0 <= x#7#2#1 <= 1
 0 <= x#7#2#2 <= 1
 0 <= x#7#3#0 <= 1
 0 <= x#7#3#1 <= 1
 0 <= x#7#3#2 <= 1
 0 <= x#7#4#0 <= 1
 0 <= x#7#4#1 <= 1
 0 <= x#7#4#2 <= 1
 0 <= x#7#5#0 <= 1
 0 <= x#7#5#1 <= 1
 0 <= x#7#5#2 <= 1
 0 <= x#7#6#0 <= 1
 0 <= x#7#6#1 <= 1
 0 <= x#7#6#2 <= 1
 0 <= x#7#7#0 <= 1
 0 <= x#7#7#1 <= 1
 0 <= x#7#7#2 <= 1
      u(1)(1) >= 0
      u(2)(1) >= 0
      u(1)(2) >= 0
      u(2)(2) >= 0
      u(1)(3) >= 0
      u(2)(3) >= 0
      u(3)(1) >= 0
      u(3)(2) >= 0
      u(3)(3) >= 0
      u(4)(1) >= 0
      u(4)(2) >= 0
      u(4)(3) >= 0
      u(5)(1) >= 0
      u(5)(2) >= 0
      u(5)(3) >= 0
      u(6)(1) >= 0
      u(6)(2) >= 0
      u(6)(3) >= 0
      u(7)(1) >= 0
      u(7)(2) >= 0
      u(7)(3) >= 0
      u(8)(1) >= 0
      u(8)(2) >= 0
      u(8)(3) >= 0
Binaries
 x#0#0#0  x#0#0#1  x#0#0#2  x#0#1#0  x#0#1#1  x#0#1#2  x#0#2#0  x#0#2#1 
 x#0#2#2  x#0#3#0  x#0#3#1  x#0#3#2  x#0#4#0  x#0#4#1  x#0#4#2  x#0#5#0 
 x#0#5#1  x#0#5#2  x#0#6#0  x#0#6#1  x#0#6#2  x#0#7#0  x#0#7#1  x#0#7#2 
 x#1#0#0  x#1#0#1  x#1#0#2  x#1#1#0  x#1#1#1  x#1#1#2  x#1#2#0  x#1#2#1 
 x#1#2#2  x#1#3#0  x#1#3#1  x#1#3#2  x#1#4#0  x#1#4#1  x#1#4#2  x#1#5#0 
 x#1#5#1  x#1#5#2  x#1#6#0  x#1#6#1  x#1#6#2  x#1#7#0  x#1#7#1  x#1#7#2 
 x#2#0#0  x#2#0#1  x#2#0#2  x#2#1#0  x#2#1#1  x#2#1#2  x#2#2#0  x#2#2#1 
 x#2#2#2  x#2#3#0  x#2#3#1  x#2#3#2  x#2#4#0  x#2#4#1  x#2#4#2  x#2#5#0 
 x#2#5#1  x#2#5#2  x#2#6#0  x#2#6#1  x#2#6#2  x#2#7#0  x#2#7#1  x#2#7#2 
 x#3#0#0  x#3#0#1  x#3#0#2  x#3#1#0  x#3#1#1  x#3#1#2  x#3#2#0  x#3#2#1 
 x#3#2#2  x#3#3#0  x#3#3#1  x#3#3#2  x#3#4#0  x#3#4#1  x#3#4#2  x#3#5#0 
 x#3#5#1  x#3#5#2  x#3#6#0  x#3#6#1  x#3#6#2  x#3#7#0  x#3#7#1  x#3#7#2 
 x#4#0#0  x#4#0#1  x#4#0#2  x#4#1#0  x#4#1#1  x#4#1#2  x#4#2#0  x#4#2#1 
 x#4#2#2  x#4#3#0  x#4#3#1  x#4#3#2  x#4#4#0  x#4#4#1  x#4#4#2  x#4#5#0 
 x#4#5#1  x#4#5#2  x#4#6#0  x#4#6#1  x#4#6#2  x#4#7#0  x#4#7#1  x#4#7#2 
 x#5#0#0  x#5#0#1  x#5#0#2  x#5#1#0  x#5#1#1  x#5#1#2  x#5#2#0  x#5#2#1 
 x#5#2#2  x#5#3#0  x#5#3#1  x#5#3#2  x#5#4#0  x#5#4#1  x#5#4#2  x#5#5#0 
 x#5#5#1  x#5#5#2  x#5#6#0  x#5#6#1  x#5#6#2  x#5#7#0  x#5#7#1  x#5#7#2 
 x#6#0#0  x#6#0#1  x#6#0#2  x#6#1#0  x#6#1#1  x#6#1#2  x#6#2#0  x#6#2#1 
 x#6#2#2  x#6#3#0  x#6#3#1  x#6#3#2  x#6#4#0  x#6#4#1  x#6#4#2  x#6#5#0 
 x#6#5#1  x#6#5#2  x#6#6#0  x#6#6#1  x#6#6#2  x#6#7#0  x#6#7#1  x#6#7#2 
 x#7#0#0  x#7#0#1  x#7#0#2  x#7#1#0  x#7#1#1  x#7#1#2  x#7#2#0  x#7#2#1 
 x#7#2#2  x#7#3#0  x#7#3#1  x#7#3#2  x#7#4#0  x#7#4#1  x#7#4#2  x#7#5#0 
 x#7#5#1  x#7#5#2  x#7#6#0  x#7#6#1  x#7#6#2  x#7#7#0  x#7#7#1  x#7#7#2 
Generals
 u(1)(1)  u(2)(1)  u(1)(2)  u(2)(2)  u(1)(3)  u(2)(3)  u(3)(1)  u(3)(2) 
 u(3)(3)  u(4)(1)  u(4)(2)  u(4)(3)  u(5)(1)  u(5)(2)  u(5)(3)  u(6)(1) 
 u(6)(2)  u(6)(3)  u(7)(1)  u(7)(2)  u(7)(3)  u(8)(1)  u(8)(2)  u(8)(3) 
End
