donnees/Exemple2.txt
50 524.61
160
30 40
 1 37 52 7 
 2 49 49 30 
 3 52 64 16 
 4 20 26 9 
 5 40 30 21 
 6 21 47 15 
 7 17 63 19